deoxyguanosine
 1.0
     12.3000    0.0000    0.0000
     6.15000   10.65211   0.0000
     0.0000    0.0000    15.0000
  1  5  6  6  
Cartesian
        10.075617        5.991981        -1.905047
        9.765156         3.761568        -2.437415
        7.644772         2.805091        -2.943425
        7.031465         6.248986        -2.283238
        5.845479         4.447653        -2.840388
        9.425857         1.801707        -2.914906
        8.958495         2.748694        -2.773007
        7.144576         4.03288         -2.748235
        7.873615         5.148721        -2.400662
        9.250323         4.985157        -2.242085
        5.84288          5.800657        -2.552028
        4.734088         3.599305        -3.221995
        4.944235         6.366661        -2.563957
        5.104535         2.905377        -3.952015
        10.450001        1.699999        -2.914906
        9.400001         0.799999        -2.914906
        4.199999         4.099999        -3.952001
        4.149999         3.049999        -2.499999
